
Gurobi 12.0.2 (win64) logging started Mon Nov 10 20:24:48 2025

Set parameter LogFile to value "C:\Ioana\_uni\honours\slp\algorithm\Main_files\results\respiration_paracetamol\Task_002_Sample002_irr_gurobi.log"
Gurobi Optimizer version 12.0.2 build v12.0.2rc0 (win64 - Windows 11.0 (26100.2))

CPU model: Intel(R) Core(TM) Ultra 5 125H, instruction set [SSE2|AVX|AVX2]
Thread count: 14 physical cores, 18 logical processors, using up to 18 threads

Non-default parameters:
TimeLimit  2200

Optimize a model with 47236 rows, 34507 columns and 146717 nonzeros
Model fingerprint: 0xdf0f301f
Variable types: 17258 continuous, 17249 integer (17249 binary)
Coefficient statistics:
  Matrix range     [1e-04, 8e+04]
  Objective range  [1e-04, 1e+01]
  Bounds range     [1e+00, 1e+03]
  RHS range        [1e+00, 1e+00]
Presolve removed 30831 rows and 21554 columns
Presolve time: 0.33s
Presolved: 16405 rows, 12953 columns, 54584 nonzeros
Variable types: 6409 continuous, 6544 integer (6544 binary)

Root relaxation: objective 1.532128e-04, 577 iterations, 0.02 seconds (0.04 work units)

    Nodes    |    Current Node    |     Objective Bounds      |     Work
 Expl Unexpl |  Obj  Depth IntInf | Incumbent    BestBd   Gap | It/Node Time

     0     0    0.00015    0   10          -    0.00015      -     -    0s
H    0     0                       0.1062510    0.00015   100%     -    0s
     0     0    0.03415    0   20    0.10625    0.03415  67.9%     -    0s
     0     0    0.03415    0   10    0.10625    0.03415  67.9%     -    0s
     0     0    0.07927    0    8    0.10625    0.07927  25.4%     -    0s
     0     0     cutoff    0         0.10625    0.10625  0.00%     -    1s

Cutting planes:
  Cover: 3
  Implied bound: 1
  Clique: 1
  MIR: 7
  Flow cover: 10
  Flow path: 7

Explored 1 nodes (2600 simplex iterations) in 1.02 seconds (1.06 work units)
Thread count was 18 (of 18 available processors)

Solution count 1: 0.106251 

Optimal solution found (tolerance 1.00e-04)
Best objective 1.062510461813e-01, best bound 1.062510461813e-01, gap 0.0000%
